decision_x1=[0,4];
decision_x2=[0,4];
decision_x3=[0,4];
decision_x4=[0,4];
decision_x5=[0,4];
decision_x6=[0,4];
decision_x7=[0,4];
decision_x8=[0,4];
decision_x9=[0,4];
decision_x10=[0,4];
random_y1=[0,4];
random_y2=[0,4];
random_y3=[0,4];
random_y4=[0,4];
random_y5=[0,4];
random_y6=[0,4];
random_y7=[0,4];
random_y8=[0,4];
random_y9=[0,4];
random_y10=[0,4];
constraint_x2_x1=[
0,0,36|
0,1,6.5|
0,2,67|
0,3,41|
0,4,19|
1,0,29|
1,1,67|
1,2,75|
1,3,37|
1,4,44|
2,0,43|
2,1,62|
2,2,84|
2,3,52|
2,4,57|
3,0,89|
3,1,3.7|
3,2,13|
3,3,27|
3,4,17|
4,0,68|
4,1,12|
4,2,71|
4,3,89|
4,4,52|
];
constraint_x3_x2=[
0,0,21|
0,1,87|
0,2,0.91|
0,3,21|
0,4,86|
1,0,63|
1,1,93|
1,2,64|
1,3,45|
1,4,71|
2,0,49|
2,1,54|
2,2,41|
2,3,21|
2,4,38|
3,0,77|
3,1,37|
3,2,13|
3,3,3.6|
3,4,94|
4,0,87|
4,1,70|
4,2,13|
4,3,30|
4,4,79|
];
constraint_x4_x3=[
0,0,7.1|
0,1,50|
0,2,48|
0,3,50|
0,4,34|
1,0,95|
1,1,22|
1,2,48|
1,3,33|
1,4,40|
2,0,20|
2,1,6.4|
2,2,87|
2,3,86|
2,4,93|
3,0,45|
3,1,96|
3,2,92|
3,3,27|
3,4,46|
4,0,11|
4,1,88|
4,2,86|
4,3,79|
4,4,96|
];
constraint_x5_x1=[
0,0,88|
0,1,67|
0,2,29|
0,3,99|
0,4,53|
1,0,78|
1,1,32|
1,2,62|
1,3,1e+02|
1,4,41|
2,0,93|
2,1,75|
2,2,79|
2,3,17|
2,4,46|
3,0,61|
3,1,17|
3,2,17|
3,3,12|
3,4,7.9|
4,0,73|
4,1,92|
4,2,13|
4,3,60|
4,4,3.3|
];
constraint_x5_x4=[
0,0,67|
0,1,34|
0,2,56|
0,3,85|
0,4,21|
1,0,75|
1,1,66|
1,2,45|
1,3,82|
1,4,7.4|
2,0,66|
2,1,9.1|
2,2,58|
2,3,80|
2,4,83|
3,0,79|
3,1,80|
3,2,5.9|
3,3,39|
3,4,41|
4,0,11|
4,1,1e+02|
4,2,7.2|
4,3,85|
4,4,17|
];
constraint_x6_x1=[
0,0,14|
0,1,80|
0,2,54|
0,3,36|
0,4,62|
1,0,37|
1,1,15|
1,2,90|
1,3,69|
1,4,76|
2,0,93|
2,1,8.5|
2,2,63|
2,3,72|
2,4,74|
3,0,32|
3,1,8|
3,2,75|
3,3,89|
3,4,89|
4,0,52|
4,1,51|
4,2,95|
4,3,12|
4,4,26|
];
constraint_x6_x3=[
0,0,62|
0,1,90|
0,2,86|
0,3,72|
0,4,52|
1,0,15|
1,1,57|
1,2,81|
1,3,59|
1,4,73|
2,0,24|
2,1,64|
2,2,3.1|
2,3,14|
2,4,97|
3,0,48|
3,1,26|
3,2,67|
3,3,85|
3,4,22|
4,0,58|
4,1,56|
4,2,54|
4,3,51|
4,4,9.6|
];
constraint_x6_x4=[
0,0,69|
0,1,63|
0,2,62|
0,3,11|
0,4,58|
1,0,11|
1,1,66|
1,2,64|
1,3,79|
1,4,18|
2,0,80|
2,1,68|
2,2,60|
2,3,1.6|
2,4,47|
3,0,76|
3,1,48|
3,2,40|
3,3,85|
3,4,33|
4,0,39|
4,1,54|
4,2,75|
4,3,18|
4,4,36|
];
constraint_x6_x5=[
0,0,84|
0,1,37|
0,2,27|
0,3,40|
0,4,69|
1,0,69|
1,1,25|
1,2,26|
1,3,79|
1,4,97|
2,0,23|
2,1,78|
2,2,71|
2,3,84|
2,4,45|
3,0,61|
3,1,34|
3,2,12|
3,3,16|
3,4,94|
4,0,53|
4,1,76|
4,2,70|
4,3,49|
4,4,45|
];
constraint_x7_x1=[
0,0,71|
0,1,92|
0,2,74|
0,3,51|
0,4,90|
1,0,28|
1,1,68|
1,2,48|
1,3,43|
1,4,54|
2,0,21|
2,1,94|
2,2,76|
2,3,25|
2,4,76|
3,0,73|
3,1,7.6|
3,2,91|
3,3,49|
3,4,0.38|
4,0,37|
4,1,27|
4,2,41|
4,3,93|
4,4,96|
];
constraint_x7_x2=[
0,0,40|
0,1,25|
0,2,51|
0,3,50|
0,4,48|
1,0,27|
1,1,50|
1,2,6.6|
1,3,43|
1,4,25|
2,0,20|
2,1,85|
2,2,54|
2,3,71|
2,4,57|
3,0,39|
3,1,80|
3,2,47|
3,3,37|
3,4,42|
4,0,81|
4,1,21|
4,2,20|
4,3,28|
4,4,48|
];
constraint_x7_x3=[
0,0,20|
0,1,66|
0,2,88|
0,3,85|
0,4,72|
1,0,74|
1,1,71|
1,2,67|
1,3,51|
1,4,21|
2,0,68|
2,1,13|
2,2,64|
2,3,49|
2,4,93|
3,0,23|
3,1,32|
3,2,28|
3,3,58|
3,4,54|
4,0,53|
4,1,77|
4,2,83|
4,3,49|
4,4,84|
];
constraint_x7_x4=[
0,0,6.6|
0,1,18|
0,2,45|
0,3,72|
0,4,23|
1,0,1.1|
1,1,77|
1,2,16|
1,3,6|
1,4,42|
2,0,23|
2,1,75|
2,2,95|
2,3,94|
2,4,57|
3,0,68|
3,1,41|
3,2,82|
3,3,76|
3,4,33|
4,0,89|
4,1,85|
4,2,59|
4,3,39|
4,4,14|
];
constraint_x8_x1=[
0,0,61|
0,1,81|
0,2,47|
0,3,33|
0,4,15|
1,0,40|
1,1,50|
1,2,88|
1,3,64|
1,4,48|
2,0,83|
2,1,23|
2,2,7.5|
2,3,5.8|
2,4,73|
3,0,85|
3,1,76|
3,2,64|
3,3,50|
3,4,71|
4,0,29|
4,1,12|
4,2,8.4|
4,3,87|
4,4,79|
];
constraint_x8_x3=[
0,0,92|
0,1,36|
0,2,52|
0,3,28|
0,4,16|
1,0,65|
1,1,90|
1,2,25|
1,3,16|
1,4,69|
2,0,88|
2,1,82|
2,2,26|
2,3,19|
2,4,89|
3,0,36|
3,1,19|
3,2,79|
3,3,44|
3,4,94|
4,0,89|
4,1,24|
4,2,93|
4,3,49|
4,4,8.1|
];
constraint_x8_x4=[
0,0,48|
0,1,3.2|
0,2,68|
0,3,7.3|
0,4,15|
1,0,60|
1,1,65|
1,2,56|
1,3,36|
1,4,74|
2,0,5.9|
2,1,11|
2,2,22|
2,3,27|
2,4,24|
3,0,56|
3,1,60|
3,2,88|
3,3,23|
3,4,84|
4,0,28|
4,1,75|
4,2,77|
4,3,52|
4,4,22|
];
constraint_x8_x5=[
0,0,72|
0,1,19|
0,2,21|
0,3,82|
0,4,0.43|
1,0,72|
1,1,58|
1,2,65|
1,3,72|
1,4,16|
2,0,61|
2,1,86|
2,2,17|
2,3,64|
2,4,38|
3,0,26|
3,1,83|
3,2,14|
3,3,99|
3,4,23|
4,0,68|
4,1,56|
4,2,68|
4,3,75|
4,4,92|
];
constraint_x9_x1=[
0,0,5.3|
0,1,61|
0,2,7.2|
0,3,98|
0,4,20|
1,0,44|
1,1,20|
1,2,63|
1,3,64|
1,4,53|
2,0,89|
2,1,10|
2,2,56|
2,3,90|
2,4,34|
3,0,26|
3,1,67|
3,2,22|
3,3,26|
3,4,37|
4,0,65|
4,1,2|
4,2,62|
4,3,48|
4,4,79|
];
constraint_x9_x3=[
0,0,43|
0,1,94|
0,2,6.9|
0,3,94|
0,4,71|
1,0,24|
1,1,21|
1,2,33|
1,3,17|
1,4,76|
2,0,10|
2,1,29|
2,2,88|
2,3,17|
2,4,20|
3,0,63|
3,1,34|
3,2,94|
3,3,89|
3,4,62|
4,0,84|
4,1,41|
4,2,2.6|
4,3,72|
4,4,98|
];
constraint_x9_x6=[
0,0,92|
0,1,84|
0,2,35|
0,3,42|
0,4,15|
1,0,62|
1,1,11|
1,2,76|
1,3,96|
1,4,85|
2,0,35|
2,1,65|
2,2,69|
2,3,42|
2,4,52|
3,0,66|
3,1,18|
3,2,36|
3,3,27|
3,4,2.1|
4,0,59|
4,1,40|
4,2,67|
4,3,81|
4,4,75|
];
constraint_x9_x8=[
0,0,80|
0,1,30|
0,2,55|
0,3,67|
0,4,75|
1,0,35|
1,1,8.2|
1,2,14|
1,3,22|
1,4,92|
2,0,36|
2,1,46|
2,2,3|
2,3,52|
2,4,65|
3,0,81|
3,1,74|
3,2,62|
3,3,64|
3,4,25|
4,0,60|
4,1,23|
4,2,16|
4,3,49|
4,4,64|
];
constraint_x10_x5=[
0,0,57|
0,1,38|
0,2,80|
0,3,27|
0,4,93|
1,0,45|
1,1,44|
1,2,27|
1,3,54|
1,4,1.8|
2,0,62|
2,1,17|
2,2,68|
2,3,8|
2,4,93|
3,0,30|
3,1,44|
3,2,63|
3,3,92|
3,4,34|
4,0,76|
4,1,69|
4,2,15|
4,3,41|
4,4,64|
];
constraint_x10_x9=[
0,0,64|
0,1,75|
0,2,82|
0,3,38|
0,4,97|
1,0,2.4|
1,1,85|
1,2,84|
1,3,28|
1,4,0.63|
2,0,60|
2,1,48|
2,2,6.8|
2,3,3.4|
2,4,94|
3,0,10|
3,1,97|
3,2,58|
3,3,76|
3,4,19|
4,0,58|
4,1,15|
4,2,95|
4,3,28|
4,4,8.9|
];
constraint_x1_y1=[
0,0,94|
0,1,20|
0,2,41|
0,3,9.1|
0,4,63|
1,0,89|
1,1,90|
1,2,89|
1,3,33|
1,4,28|
2,0,13|
2,1,51|
2,2,95|
2,3,76|
2,4,65|
3,0,70|
3,1,58|
3,2,61|
3,3,88|
3,4,79|
4,0,4.9|
4,1,60|
4,2,48|
4,3,90|
4,4,98|
];
constraint_x2_y2=[
0,0,44|
0,1,65|
0,2,27|
0,3,50|
0,4,84|
1,0,59|
1,1,80|
1,2,78|
1,3,59|
1,4,66|
2,0,14|
2,1,9.7|
2,2,64|
2,3,69|
2,4,19|
3,0,29|
3,1,77|
3,2,39|
3,3,56|
3,4,66|
4,0,77|
4,1,36|
4,2,24|
4,3,61|
4,4,43|
];
constraint_x3_y3=[
0,0,11|
0,1,8.7|
0,2,35|
0,3,18|
0,4,1e+02|
1,0,16|
1,1,16|
1,2,23|
1,3,29|
1,4,93|
2,0,32|
2,1,6.4|
2,2,68|
2,3,60|
2,4,24|
3,0,77|
3,1,84|
3,2,33|
3,3,92|
3,4,2.7|
4,0,4.5|
4,1,56|
4,2,14|
4,3,61|
4,4,90|
];
constraint_x4_y4=[
0,0,48|
0,1,83|
0,2,31|
0,3,33|
0,4,73|
1,0,76|
1,1,13|
1,2,88|
1,3,12|
1,4,86|
2,0,59|
2,1,56|
2,2,87|
2,3,19|
2,4,67|
3,0,63|
3,1,78|
3,2,99|
3,3,5.6|
3,4,20|
4,0,12|
4,1,95|
4,2,31|
4,3,6.4|
4,4,5.7|
];
constraint_x5_y5=[
0,0,47|
0,1,70|
0,2,32|
0,3,7.7|
0,4,18|
1,0,35|
1,1,97|
1,2,30|
1,3,42|
1,4,73|
2,0,66|
2,1,77|
2,2,61|
2,3,61|
2,4,68|
3,0,56|
3,1,73|
3,2,46|
3,3,90|
3,4,12|
4,0,7.5|
4,1,62|
4,2,69|
4,3,9.6|
4,4,48|
];
constraint_x6_y6=[
0,0,54|
0,1,65|
0,2,83|
0,3,49|
0,4,46|
1,0,6.5|
1,1,12|
1,2,97|
1,3,81|
1,4,94|
2,0,52|
2,1,92|
2,2,21|
2,3,60|
2,4,40|
3,0,54|
3,1,91|
3,2,58|
3,3,99|
3,4,71|
4,0,28|
4,1,67|
4,2,6.8|
4,3,32|
4,4,48|
];
constraint_x7_y7=[
0,0,98|
0,1,15|
0,2,54|
0,3,64|
0,4,76|
1,0,36|
1,1,5.8|
1,2,84|
1,3,35|
1,4,33|
2,0,7.3|
2,1,53|
2,2,79|
2,3,48|
2,4,87|
3,0,60|
3,1,48|
3,2,55|
3,3,4.7|
3,4,39|
4,0,97|
4,1,70|
4,2,51|
4,3,30|
4,4,24|
];
constraint_x8_y8=[
0,0,77|
0,1,83|
0,2,49|
0,3,39|
0,4,83|
1,0,16|
1,1,20|
1,2,29|
1,3,32|
1,4,96|
2,0,71|
2,1,61|
2,2,41|
2,3,15|
2,4,17|
3,0,2.7|
3,1,58|
3,2,47|
3,3,36|
3,4,77|
4,0,32|
4,1,0.43|
4,2,68|
4,3,88|
4,4,81|
];
constraint_x9_y9=[
0,0,48|
0,1,80|
0,2,37|
0,3,9.5|
0,4,65|
1,0,98|
1,1,40|
1,2,53|
1,3,32|
1,4,40|
2,0,63|
2,1,73|
2,2,36|
2,3,11|
2,4,67|
3,0,16|
3,1,72|
3,2,75|
3,3,44|
3,4,50|
4,0,78|
4,1,55|
4,2,61|
4,3,82|
4,4,28|
];
constraint_x10_y10=[
0,0,90|
0,1,65|
0,2,55|
0,3,3.8|
0,4,4.1|
1,0,51|
1,1,33|
1,2,90|
1,3,74|
1,4,86|
2,0,27|
2,1,60|
2,2,15|
2,3,69|
2,4,50|
3,0,63|
3,1,73|
3,2,32|
3,3,67|
3,4,4.7|
4,0,5.2|
4,1,90|
4,2,60|
4,3,95|
4,4,32|
];
initial_distribution_y1=[0.18,0.52,0.099,0.14,0.068];
initial_distribution_y2=[0.26,0.28,0.18,0.2,0.079];
initial_distribution_y3=[0.16,0.2,0.22,0.31,0.11];
initial_distribution_y4=[0.18,0.24,0.27,0.25,0.059];
initial_distribution_y5=[0.13,0.41,0.11,0.16,0.19];
initial_distribution_y6=[0.032,0.27,0.28,0.068,0.35];
initial_distribution_y7=[0.088,0.036,0.047,0.37,0.46];
initial_distribution_y8=[0.3,0.1,0.27,0.19,0.13];
initial_distribution_y9=[0.31,0.11,0.18,0.13,0.27];
initial_distribution_y10=[0.073,0.29,0.15,0.3,0.18];
transition_y1=[
0.35,0.22,0.055,0.18,0.2|
0.27,0.26,0.084,0.13,0.26|
0.4,0.14,0.17,0.14,0.15|
0.28,0.2,0.21,0.15,0.15|
0.13,0.58,0.03,0.21,0.054|
];
transition_y2=[
0.22,0.41,0.011,0.27,0.093|
0.38,0.055,0.042,0.099,0.42|
0.043,0.17,0.15,0.15,0.48|
0.2,0.17,0.23,0.21,0.19|
0.28,0.096,0.11,0.43,0.086|
];
transition_y3=[
0.17,0.023,0.24,0.43,0.15|
0.13,0.18,0.3,0.27,0.12|
0.056,0.33,0.14,0.065,0.41|
0.16,0.16,0.39,0.087,0.2|
0.35,0.089,0.28,0.065,0.21|
];
transition_y4=[
0.34,0.34,0.16,0.03,0.14|
0.025,0.43,0.1,0.31,0.13|
0.17,0.26,0.088,0.33,0.15|
0.22,0.095,0.19,0.28,0.22|
0.058,0.34,0.026,0.31,0.27|
];
transition_y5=[
0.4,0.29,0.1,0.11,0.1|
0.31,0.2,0.027,0.34,0.13|
0.013,0.25,0.25,0.32,0.16|
0.089,0.19,0.077,0.29,0.35|
0.31,0.038,0.18,0.42,0.051|
];
transition_y6=[
0.41,0.15,0.33,0.0091,0.096|
0.032,0.034,0.22,0.36,0.36|
0.25,0.3,0.048,0.21,0.2|
0.029,0.16,0.073,0.43,0.3|
0.24,0.29,0.1,0.11,0.25|
];
transition_y7=[
0.15,0.36,0.1,0.24,0.15|
0.21,0.38,0.078,0.048,0.29|
0.026,0.25,0.3,0.33,0.095|
0.21,0.28,0.2,0.091,0.23|
0.18,0.13,0.27,0.0088,0.42|
];
transition_y8=[
0.091,0.061,0.46,0.38,0.011|
0.17,0.17,0.26,0.11,0.29|
0.29,0.023,0.47,0.028,0.19|
0.14,0.18,0.27,0.19,0.21|
0.21,0.07,0.14,0.29,0.28|
];
transition_y9=[
0.25,0.39,0.07,0.081,0.2|
0.08,0.26,0.25,0.15,0.25|
0.0098,0.11,0.29,0.36,0.23|
0.012,0.36,0.13,0.11,0.39|
0.024,0.34,0.064,0.32,0.25|
];
transition_y10=[
0.2,0.27,0.14,0.26,0.13|
0.26,0.24,0.29,0.21,0.0052|
0.2,0.23,0.24,0.15,0.18|
0.35,0.32,0.037,0.029,0.27|
0.084,0.14,0.22,0.29,0.27|
];
